num_features = 25;
num_usage_limits = 4;
num_plans = 4;
num_addons = 0;

features = ["reviews","reviewForms","widgets","importTestimonials","embedReviews","qrReviews","urlReviews","widgetWhiteLabeling","abTesting","zapierIntegrations","hubspotIntegration","pipedriveIntegration","automations","emailSending","smsSending","customerSuccess","comprehensiveSurveyTool","surveyTemplateLibrary","npsForms","csatForms","cesForms","customizableSurveys","conditionalSurveyQuestions","customerFeedbackConvertedIntoReviews","crmIntegrations"];
usage_limits = ["publishedReviewsLimit","reviewFormsLimit","activeWidgetsLimit","usersLimit"];
plans = ["SOLO","BUSINESS","AUTOMATE","PRO"];
addons = [];

plans_prices = [0,90,290,590];
addons_prices = [];

linked_features = array2d(USAGE_LIMITS, FEATURES, [
    % publishedReviewsLimit
    1,0,0,0,0,0,0,0,0,0,0,0,0,0,0,0,0,0,0,0,0,0,0,0,0,
    % reviewFormsLimit
    0,1,0,0,0,0,0,0,0,0,0,0,0,0,0,0,0,0,0,0,0,0,0,0,0,
    % activeWidgetsLimit
    0,0,1,0,0,0,0,0,0,0,0,0,0,0,0,0,0,0,0,0,0,0,0,0,0,
    % usersLimit
    0,0,0,0,0,0,0,0,0,0,0,0,0,0,0,0,0,0,0,0,0,0,0,0,0
]);

plans_features = array2d(PLANS, FEATURES, [
    % SOLO
    1,1,1,1,0,0,0,0,0,0,0,0,0,0,0,0,0,0,0,0,0,0,0,0,0,
    % BUSINESS
    1,1,1,1,1,1,1,1,0,0,0,0,0,0,0,0,0,0,0,0,0,0,0,0,0,
    % AUTOMATE
    1,1,1,1,1,1,1,1,1,1,1,1,1,1,1,1,0,0,0,0,0,0,0,0,0,
    % PRO
    1,1,1,1,1,1,1,1,1,1,1,1,1,1,1,1,1,1,1,1,1,1,1,1,1
]);
plans_usage_limits = array2d(PLANS, USAGE_LIMITS, [
    % SOLO
    20,1,1,1,
    % BUSINESS
    Infinity,1,Infinity,1,
    % AUTOMATE
    Infinity,1,Infinity,Infinity,
    % PRO
    Infinity,1,Infinity,Infinity
]);

addons_features = array2d(ADDONS, FEATURES, [
]);
addons_usage_limits = array2d(ADDONS, USAGE_LIMITS, [
]);
addons_usage_limits_extensions = array2d(ADDONS, USAGE_LIMITS, [
]);
addons_available_for = array2d(ADDONS, PLANS, [
]);
addons_depends_on = array2d(ADDONS, ADDONS, [
]);
